50, 575
9, 4
21, 16
55, 50
11, 6
35, 30
27, 22
27, 22
9, 4
9, 4
9, 4
39, 34
15, 10
13, 8
9, 4
19, 14
33, 28
47, 42
13, 8
31, 26
29, 24
11, 6
25, 20
31, 26
31, 26
23, 18
19, 14
53, 48
29, 24
51, 46
29, 24
29, 24
43, 38
21, 16
47, 42
7, 2
53, 48
13, 8
39, 34
51, 46
33, 28
23, 18
19, 14
49, 44
49, 44
19, 14
23, 18
27, 22
23, 18
49, 44
19, 14
